16 0
2 8 0 2 5 13 15 7 10 8 0 15 7 2 2 7 3 7 10 11 11 15 5 7 11 12 15 4 11 1 15 12 14 10 3 0 14 4 7 13 9 14 2 9 0 12 3 5 2 13 9 1 12 14 3 12 5 13 1 6 0 9 11 6 5 6 6 15 4 4 3 10 5 14 14 3 13 11 4 1 0 12 11 10 13 10 9 8 7 6 8 5 1 4 4 3 6 2 1 0